============================[ Problem Statistics ]=============================|                                                                             ||  Number of variables:          4242                                         ||  Number of clauses:           10108                                         ||  Parse time:                   0.51 s                                       ||                                                                             |============================[ Search Statistics ]==============================| Conflicts |          ORIGINAL         |          LEARNT          | Progress ||           |    Vars  Clauses Literals |    Limit  Clauses Lit/Cl |          |===============================================================================|       100 |    1591     6313   791384 |     2314      100     53 | 62.501 % ||       250 |    1591     6313   791384 |     2546      250     75 | 62.495 % |===============================================================================restarts              : 3conflicts             : 278            (365 /sec)decisions             : 543            (0.00 % random) (713 /sec)propagations          : 11809          (15497 /sec)conflict literals     : 21562          (94.80 % deleted)CPU time              : 0.762 sSATISFIABLE